c 
c G(n,p) graph
c graph gen seed     : 35
c number of vertices : 20
c max number of edges: 400
c edge probability   : 0.600000
c data structure     : dense
c
c           Graph Stats
c number of vertices  : 20
c nonisolated vertices: 20
c number of edges     : 111
c edge density        : 0.584211
c max degree          : 14
c avg degree          : 11.10
c min degree          : 8
p col 20 111
e 1 3
e 1 6
e 1 8
e 1 9
e 1 12
e 1 14
e 1 15
e 1 16
e 1 17
e 1 18
e 1 19
e 2 3
e 2 4
e 2 5
e 2 6
e 2 12
e 2 14
e 2 15
e 2 17
e 2 19
e 2 20
e 3 4
e 3 5
e 3 6
e 3 8
e 3 9
e 3 10
e 3 12
e 3 14
e 3 17
e 3 18
e 3 19
e 3 20
e 4 6
e 4 7
e 4 8
e 4 10
e 4 13
e 4 14
e 4 15
e 4 16
e 4 18
e 4 19
e 4 20
e 5 7
e 5 10
e 5 11
e 5 13
e 5 14
e 5 15
e 5 18
e 5 19
e 5 20
e 6 7
e 6 11
e 6 16
e 6 17
e 6 18
e 6 20
e 7 8
e 7 9
e 7 10
e 7 13
e 7 14
e 7 15
e 7 16
e 7 19
e 7 20
e 8 10
e 8 11
e 8 12
e 8 13
e 8 14
e 8 15
e 8 17
e 8 18
e 8 19
e 8 20
e 9 10
e 9 11
e 9 15
e 9 17
e 9 20
e 10 11
e 10 13
e 10 15
e 10 17
e 10 19
e 10 20
e 11 12
e 11 13
e 11 15
e 11 16
e 11 17
e 11 20
e 12 15
e 12 16
e 12 17
e 12 18
e 12 19
e 13 14
e 13 16
e 14 15
e 14 17
e 14 19
e 15 17
e 15 19
e 16 18
e 16 19
e 17 18
e 17 20
